Timesteps: 1
s UNSATISFIABLE
real 0.27
user 0.03
sys 0.00
Timesteps: 2
s UNSATISFIABLE
real 0.27
user 0.07
sys 0.01
Timesteps: 3
s UNSATISFIABLE
real 0.26
user 0.11
sys 0.01
Timesteps: 4
s UNSATISFIABLE
real 0.43
user 0.26
sys 0.01
Timesteps: 5
s UNSATISFIABLE
real 0.74
user 0.46
sys 0.03
Timesteps: 6
s UNSATISFIABLE
real 0.88
user 0.60
sys 0.03
Timesteps: 7
s UNSATISFIABLE
real 3.36
user 2.62
sys 0.03
Timesteps: 8
s UNSATISFIABLE
real 13.89
user 12.94
sys 0.05
Timesteps: 9
s UNSATISFIABLE
real 11.69
user 10.66
sys 0.05
Timesteps: 10
s UNSATISFIABLE
real 15.38
user 14.21
sys 0.08
Timesteps: 11
s UNSATISFIABLE
real 19.43
user 18.14
sys 0.06
Timesteps: 12
s UNSATISFIABLE
real 22.78
user 21.32
sys 0.07
Timesteps: 13
s UNSATISFIABLE
real 23.77
user 22.23
sys 0.08
Timesteps: 14
s UNSATISFIABLE
real 30.96
user 29.26
sys 0.10
Timesteps: 15
s UNSATISFIABLE
real 26.80
user 25.02
sys 0.11
Timesteps: 16
s UNSATISFIABLE
real 22.04
user 20.37
sys 0.10
Timesteps: 17
s UNSATISFIABLE
real 23.48
user 22.58
sys 0.10
Timesteps: 18
s UNSATISFIABLE
real 29.16
user 27.83
sys 0.13
Timesteps: 19
s UNSATISFIABLE
real 68.34
user 67.23
sys 0.16
Timesteps: 20
s UNSATISFIABLE
real 182.29
user 180.58
sys 0.25
Timesteps: 21
s UNSATISFIABLE
real 915.26
user 910.10
sys 0.68
Timesteps: 22
